20
250 250 250 
120 133 91 
135 186 135 
86 75 120 
103 73 71 
66 85 87 
135 97 71 
91 175 66 
131 176 87 
71 176 135 
153 72 168 
87 148 132 
168 107 153 
118 90 86 
140 109 120 
132 159 153 
152 93 131 
135 68 121 
121 158 66 
68 94 103 
155 76 135 
gcut2_3d
